WARNING: for repeatability, setting FPU to use double precision
============================[ Problem Statistics ]=============================
|                                                                             |
|  Number of variables:         33791                                         |
|  Number of clauses:          853727                                         |
|  Parse time:                   0.23 s                                       |
|  Eliminated clauses:           0.01 Mb                                      |
|  Simplification time:          0.32 s                                       |
|                                                                             |
============================[ Search Statistics ]==============================
| Conflicts |          ORIGINAL         |          LEARNT          | Progress |
|           |    Vars  Clauses Literals |    Limit  Clauses Lit/Cl |          |
===============================================================================
===============================================================================
restarts              : 1
conflicts             : 57             (102 /sec)
decisions             : 826            (0.00 % random) (1479 /sec)
propagations          : 44066          (78925 /sec)
conflict literals     : 14457          (0.06 % deleted)
Memory used           : 78.00 MB
CPU time              : 0.558326 s

SATISFIABLE
